NAME : rnd27_50.tsp.tsp.opt.tour
TYPE : TOUR
DIMENSION : 50
TOUR_SECTION
1
34
14
8
29
46
38
5
2
28
43
40
37
21
3
30
18
23
20
49
9
44
16
39
27
35
11
17
7
12
19
41
36
50
24
32
33
45
48
6
13
25
31
22
10
42
4
15
26
47
-1